107	22	4	101	
10	10	10	10

0	0	0	0	0	0	2	1	2
1	9	2	4	9	10	1	18
2	6	3	8	1	6	1	3
3	9	3	5	8	10	1	4
4	6	8	3	5	6	1	5
5	4	2	8	10	7	2	6	20
6	3	6	7	5	2	1	7
7	9	1	8	1	8	2	8	18
8	5	1	9	1	5	1	9
9	5	7	2	5	8	1	10
10	2	3	3	1	2	1	11
11	6	4	1	6	4	1	12
12	2	1	3	5	7	1	13
13	5	10	5	9	2	1	14
14	4	2	3	3	2	1	15
15	10	2	5	6	7	1	16
16	3	1	1	9	4	1	17
17	2	5	4	6	3	1	19
18	5	6	2	4	2	1	21
19	3	10	9	6	7	1	21
20	6	9	9	1	5	1	21
21	0	0	0	0	0	0
